qbf_easy_train/easy_724_SAT.qdimacs
p cnf 20 46
a 17 4 7 0
e 1 2 3 5 6 8 9 10 11 12 13 14 15 16 18 19 20 0
3 -1 0
3 -2 0
1 2 -3 0
6 4 0
6 5 0
-4 -5 -6 0
8 -2 0
8 -7 0
2 7 -8 0
-10 -8 0
-10 -9 0
8 9 10 0
-6 10 -11 0
6 -10 -11 0
-6 -10 11 0
6 10 11 0
-12 3 0
-12 11 0
-3 -11 12 0
-1 5 -15 0
1 -5 -15 0
-1 -5 15 0
1 5 15 0
14 15 -16 0
-14 -15 -16 0
14 -15 16 0
-14 15 16 0
17 13 0
17 16 0
-13 -16 -17 0
18 -12 0
18 17 0
12 -17 -18 0
15 -8 -19 0
-15 8 -19 0
15 8 19 0
-15 -8 19 0
18 -19 -20 0
-18 19 -20 0
18 19 20 0
-18 -19 20 0
5 -11 -1 18 0
-14 -4 -13 -15 19 3 7 0
2 7 13 -15 0
1 -19 -2 6 9 -10 -15 -17 0
20 0
