sat_easy_train/easy_724_SAT.dimacs
p cnf 131 448
1 2 -3 0
-1 -2 -3 0
1 -2 3 0
-1 2 3 0
4 -5 -6 0
-4 5 -6 0
4 5 6 0
-4 -5 6 0
8 6 0
8 7 0
-6 -7 -8 0
5 -9 -10 0
-5 9 -10 0
5 9 10 0
-5 -9 10 0
11 -4 0
11 -10 0
4 10 -11 0
12 -8 0
12 11 0
8 -11 -12 0
-13 -12 0
-13 -1 0
12 1 13 0
14 3 0
14 13 0
-3 -13 -14 0
3 -8 -15 0
-3 8 -15 0
3 8 15 0
-3 -8 15 0
10 -18 -19 0
-10 18 -19 0
10 18 19 0
-10 -18 19 0
20 -17 0
20 19 0
17 -19 -20 0
-20 3 -21 0
20 -3 -21 0
-20 -3 21 0
20 3 21 0
22 -16 0
22 21 0
16 -21 -22 0
-22 -23 -24 0
22 23 -24 0
-22 23 24 0
22 -23 24 0
-25 -15 0
-25 -24 0
15 24 25 0
-14 -25 -26 0
14 25 -26 0
-14 25 26 0
14 -25 26 0
-28 27 0
-28 4 0
-27 -4 28 0
29 28 0
29 -19 0
-28 19 -29 0
-19 -29 -30 0
19 29 -30 0
-19 29 30 0
19 -29 30 0
-31 -19 0
-31 21 0
19 -21 31 0
30 -31 -32 0
-30 31 -32 0
30 31 32 0
-30 -31 32 0
-26 -32 -33 0
26 32 -33 0
-26 32 33 0
26 -32 33 0
-35 -34 0
-35 -3 0
34 3 35 0
-7 35 -36 0
7 -35 -36 0
-7 -35 36 0
7 35 36 0
-37 -11 0
-37 -6 0
11 6 37 0
-38 -37 0
-38 5 0
37 -5 38 0
-39 34 0
-39 23 0
-34 -23 39 0
40 -38 0
40 -39 0
38 39 -40 0
-41 30 0
-41 16 0
-30 -16 41 0
42 40 0
42 -41 0
-40 41 -42 0
36 -42 -43 0
-36 42 -43 0
36 42 43 0
-36 -42 43 0
-33 -43 -44 0
33 43 -44 0
-33 43 44 0
33 -43 44 0
-18 12 -45 0
18 -12 -45 0
-18 -12 45 0
18 12 45 0
-46 -35 0
-46 -5 0
35 5 46 0
47 -46 0
47 35 0
46 -35 -47 0
48 28 -49 0
-48 -28 -49 0
48 -28 49 0
-48 28 49 0
-49 -31 -50 0
49 31 -50 0
-49 31 50 0
49 -31 50 0
-51 50 0
-51 -20 0
-50 20 51 0
52 47 0
52 51 0
-47 -51 -52 0
-45 -52 -53 0
45 52 -53 0
-45 52 53 0
45 -52 53 0
44 53 -54 0
-44 -53 -54 0
44 -53 54 0
-44 53 54 0
-1 31 -55 0
1 -31 -55 0
-1 -31 55 0
1 31 55 0
55 37 -56 0
-55 -37 -56 0
55 -37 56 0
-55 37 56 0
57 -4 0
57 31 0
4 -31 -57 0
-58 -10 -59 0
58 10 -59 0
-58 10 59 0
58 -10 59 0
-57 59 -60 0
57 -59 -60 0
-57 -59 60 0
57 59 60 0
-56 60 -61 0
56 -60 -61 0
-56 -60 61 0
56 60 61 0
-62 39 0
-62 -1 0
-39 1 62 0
-63 -62 0
-63 -2 0
62 2 63 0
-64 -61 0
-64 63 0
61 -63 64 0
-65 30 0
-65 -30 0
-64 65 -66 0
64 -65 -66 0
-64 -65 66 0
64 65 66 0
-67 -21 0
-67 -46 0
21 46 67 0
-68 23 0
-68 -11 0
-23 11 68 0
69 68 0
69 50 0
-68 -50 -69 0
-4 -27 -70 0
4 27 -70 0
-4 27 70 0
4 -27 70 0
71 -69 0
71 70 0
69 -70 -71 0
-72 67 0
-72 71 0
-67 -71 72 0
-73 -66 0
-73 -72 0
66 72 73 0
-54 -73 -74 0
54 73 -74 0
-54 73 74 0
54 -73 74 0
75 4 0
75 -59 0
-4 59 -75 0
-76 2 0
-76 22 0
-2 -22 76 0
-31 9 -77 0
31 -9 -77 0
-31 -9 77 0
31 9 77 0
7 77 -78 0
-7 -77 -78 0
7 -77 78 0
-7 77 78 0
78 3 -79 0
-78 -3 -79 0
78 -3 79 0
-78 3 79 0
-2 80 -81 0
2 -80 -81 0
-2 -80 81 0
2 80 81 0
-9 81 -82 0
9 -81 -82 0
-9 -81 82 0
9 81 82 0
79 82 -83 0
-79 -82 -83 0
79 -82 83 0
-79 82 83 0
76 -83 -84 0
-76 83 -84 0
76 83 84 0
-76 -83 84 0
85 -2 0
85 -46 0
2 46 -85 0
22 21 -86 0
-22 -21 -86 0
22 -21 86 0
-22 21 86 0
-87 -86 0
-87 -16 0
86 16 87 0
-88 9 0
-88 81 0
-9 -81 88 0
-89 -87 0
-89 -88 0
87 88 89 0
85 89 -90 0
-85 -89 -90 0
85 -89 90 0
-85 89 90 0
-91 -84 0
-91 -90 0
84 90 91 0
-92 75 0
-92 91 0
-75 -91 92 0
93 17 0
93 27 0
-17 -27 -93 0
94 -21 0
94 -93 0
21 93 -94 0
95 92 0
95 -94 0
-92 94 -95 0
-97 -96 0
-97 2 0
96 -2 97 0
98 -95 0
98 -97 0
95 97 -98 0
99 -30 0
99 93 0
30 -93 -99 0
-28 37 -100 0
28 -37 -100 0
-28 -37 100 0
28 37 100 0
12 -48 -101 0
-12 48 -101 0
12 48 101 0
-12 -48 101 0
101 -5 -102 0
-101 5 -102 0
101 5 102 0
-101 -5 102 0
-103 -100 0
-103 102 0
100 -102 103 0
-99 103 -104 0
99 -103 -104 0
-99 -103 104 0
99 103 104 0
105 101 0
105 31 0
-101 -31 -105 0
-106 104 0
-106 105 0
-104 -105 106 0
-107 -6 0
-107 -10 0
6 10 107 0
108 11 0
108 -58 0
-11 58 -108 0
6 48 -109 0
-6 -48 -109 0
6 -48 109 0
-6 48 109 0
-110 -108 0
-110 -109 0
108 109 110 0
-107 -110 -111 0
107 110 -111 0
-107 110 111 0
107 -110 111 0
-112 -106 0
-112 111 0
106 -111 112 0
113 -98 0
113 -112 0
98 112 -113 0
114 -77 0
114 12 0
77 -12 -114 0
-115 86 0
-115 2 0
-86 -2 115 0
-116 -114 0
-116 -115 0
114 115 116 0
-21 116 -117 0
21 -116 -117 0
-21 -116 117 0
21 116 117 0
9 -4 -118 0
-9 4 -118 0
9 4 118 0
-9 -4 118 0
117 -118 -119 0
-117 118 -119 0
117 118 119 0
-117 -118 119 0
-120 113 0
-120 119 0
-113 -119 120 0
-121 34 0
-121 -35 0
-34 35 121 0
-122 -20 0
-122 -20 0
20 122 0
-123 -121 0
-123 122 0
121 -122 123 0
-124 -30 0
-124 -77 0
30 77 124 0
125 -123 0
125 -124 0
123 124 -125 0
126 8 0
126 -62 0
-8 62 -126 0
-127 78 0
-127 24 0
-78 -24 127 0
128 126 0
128 -127 0
-126 127 -128 0
129 125 0
129 128 0
-125 -128 -129 0
130 -120 0
130 129 0
120 -129 -130 0
-131 -74 0
-131 130 0
74 -130 131 0
-116 46 0
-42 89 62 0
-122 127 -87 -35 -2 0
70 24 -59 102 -77 80 0
-125 -52 0
26 -20 32 0
-12 -95 14 0
-21 98 0
2 5 121 20 0
31 120 64 -84 -93 0
-45 -90 -51 -129 -59 0
107 82 0
-123 -45 -35 117 -89 0
6 -92 -50 0
-19 14 -72 -108 0
-86 64 -10 -12 0
39 36 131 0
-42 -102 -44 -25 0
74 -5 87 -96 -94 101 0
47 -116 103 -28 67 0
-111 -95 -16 0
63 121 75 -100 -7 108 0
-60 64 -70 101 -95 0
-101 57 96 -58 8 0
-84 -43 -62 -11 0
-32 131 93 -27 0
76 -72 -57 -34 -30 0
-21 80 0
106 -68 -107 0
45 -105 -52 -21 12 116 0
-67 -12 87 0
-120 -102 -131 11 32 0
86 -72 -81 117 0
-69 -124 74 42 -83 52 0
56 -8 29 0
-7 -90 73 54 0
-63 88 -49 71 -127 0
-23 -8 0
127 92 84 0
14 -73 69 -88 0
25 90 0
-37 27 0
106 -85 32 -95 131 0
19 26 0
32 -29 0
-42 122 93 81 1 -76 0
108 36 30 13 0
-66 21 -4 0
-79 91 0
-24 -117 110 17 0
7 48 -61 0
105 47 12 80 -15 13 0
-38 -86 -92 -22 -79 0
56 16 -119 -69 15 0
97 7 -14 0
-84 106 -30 0
84 -13 -10 -32 -93 0
-64 65 83 0
131 0
